c Generated map
c Size: 9 * 9, weights in range: 1 to 10, walls: True, with ratio 0.1
c dim 3 of 8
c
p sp 81 115
c graph contains 81 nodes and 115 arcs
c
a 1 10 10
a 10 1 10
a 1 2 2
a 2 1 2
a 2 3 1
a 3 2 1
a 3 12 3
a 12 3 3
a 3 4 2
a 4 3 2
a 4 13 10
a 13 4 10
a 4 5 9
a 5 4 9
a 5 14 1
a 14 5 1
a 5 6 2
a 6 5 2
a 6 7 2
a 7 6 2
a 7 16 1
a 16 7 1
a 7 8 6
a 8 7 6
a 8 17 2
a 17 8 2
a 8 9 3
a 9 8 3
a 9 18 10
a 18 9 10
a 10 19 5
a 19 10 5
a 12 21 7
a 21 12 7
a 12 13 3
a 13 12 3
a 13 22 5
a 22 13 5
a 13 14 4
a 14 13 4
a 14 23 9
a 23 14 9
a 16 25 9
a 25 16 9
a 16 17 5
a 17 16 5
a 17 26 5
a 26 17 5
a 17 18 5
a 18 17 5
a 18 27 10
a 27 18 10
a 19 28 8
a 28 19 8
a 19 20 6
a 20 19 6
a 20 29 2
a 29 20 2
a 20 21 9
a 21 20 9
a 21 30 2
a 30 21 2
a 21 22 2
a 22 21 2
a 22 31 8
a 31 22 8
a 22 23 9
a 23 22 9
a 23 32 5
a 32 23 5
a 25 34 1
a 34 25 1
a 25 26 10
a 26 25 10
a 26 35 6
a 35 26 6
a 26 27 10
a 27 26 10
a 27 36 7
a 36 27 7
a 28 37 8
a 37 28 8
a 28 29 5
a 29 28 5
a 29 38 3
a 38 29 3
a 29 30 9
a 30 29 9
a 30 39 8
a 39 30 8
a 30 31 8
a 31 30 8
a 31 40 9
a 40 31 9
a 31 32 7
a 32 31 7
a 32 41 5
a 41 32 5
a 32 33 3
a 33 32 3
a 33 42 8
a 42 33 8
a 33 34 10
a 34 33 10
a 34 43 7
a 43 34 7
a 34 35 5
a 35 34 5
a 35 44 2
a 44 35 2
a 35 36 9
a 36 35 9
a 36 45 9
a 45 36 9
a 37 38 9
a 38 37 9
a 38 39 4
a 39 38 4
a 39 48 2
a 48 39 2
a 39 40 4
a 40 39 4
a 40 49 9
a 49 40 9
a 40 41 7
a 41 40 7
a 41 50 6
a 50 41 6
a 41 42 7
a 42 41 7
a 42 51 6
a 51 42 6
a 42 43 2
a 43 42 2
a 43 52 10
a 52 43 10
a 43 44 1
a 44 43 1
a 44 53 1
a 53 44 1
a 44 45 5
a 45 44 5
a 45 54 5
a 54 45 5
a 48 57 2
a 57 48 2
a 48 49 10
a 49 48 10
a 49 58 4
a 58 49 4
a 49 50 7
a 50 49 7
a 50 59 4
a 59 50 4
a 50 51 3
a 51 50 3
a 51 60 6
a 60 51 6
a 51 52 8
a 52 51 8
a 52 53 8
a 53 52 8
a 53 62 6
a 62 53 6
a 53 54 10
a 54 53 10
a 54 63 10
a 63 54 10
a 55 64 3
a 64 55 3
a 55 56 5
a 56 55 5
a 56 65 6
a 65 56 6
a 56 57 7
a 57 56 7
a 57 66 4
a 66 57 4
a 57 58 4
a 58 57 4
a 58 67 2
a 67 58 2
a 58 59 6
a 59 58 6
a 59 68 7
a 68 59 7
a 59 60 6
a 60 59 6
a 62 63 4
a 63 62 4
a 63 72 7
a 72 63 7
a 64 73 3
a 73 64 3
a 64 65 5
a 65 64 5
a 65 74 9
a 74 65 9
a 65 66 10
a 66 65 10
a 66 75 1
a 75 66 1
a 66 67 4
a 67 66 4
a 67 76 4
a 76 67 4
a 67 68 3
a 68 67 3
a 68 77 6
a 77 68 6
a 70 79 10
a 79 70 10
a 72 81 2
a 81 72 2
a 73 74 8
a 74 73 8
a 74 75 7
a 75 74 7
a 75 76 9
a 76 75 9
a 76 77 6
a 77 76 6
a 77 78 3
a 78 77 3
a 78 79 4
a 79 78 4
a 79 80 4
a 80 79 4
a 80 81 3
a 81 80 3
